C4 H6 
1.0
1.5000000000000000e+01 0.0000000000000000e+00 0.0000000000000000e+00 
0.0000000000000000e+00 1.5000000000000000e+01 0.0000000000000000e+00 
0.0000000000000000e+00 0.0000000000000000e+00 1.5000000000000000e+01 
C H 
4 6 
Cartesian
   8.0930000000    7.9580000000    6.0150000000
   7.3300000000    7.0440000000    6.6990000000
   6.9970000000    6.9670000000    8.0830000000
   7.3980000000    7.8010000000    9.1440000000
   8.2760000000    7.7840000000    4.9380000000
   8.5590000000    8.7980000000    6.5020000000
   6.8810000000    6.2140000000    6.1660000000
   6.3460000000    6.2030000000    8.3370000000
   8.0930000000    8.5980000000    8.9510000000
   7.0260000000    7.6340000000   10.1660000000
